(declare-const b Int)
(declare-const term_to_project_onto0_integralized Int)
(declare-const d Int)
(declare-const c Int)
(declare-const K Int)
(declare-const |d'| Int)
(declare-const |c'| Int)
(declare-const |b'| Int)
(declare-const term_to_project_onto1_integralized Int)
(declare-const term_to_project_onto_integralized Int)
(declare-const |d'0| Int)
(declare-const |c'0| Int)
(assert (and (<= (+ (- d) 1) 0) (<= (+ (- c) 1) 0) (<= (- b) 0)
               (<= (+ b -5) 0) (= (+ (- |c'0|) K) 0)
               (<= (+ |d'0| (* -5 K) (- d)) 0)
               (or (and (= K 0) (= (+ (- |d'0|) d) 0) (= (- |c'0|) 0))
                     (and (<= (+ (- K) 1) 0) (<= (+ (- d) 1) 0)
                            (= (+ |d'0| -6) 0) (<= (+ |c'0| -6) 0)
                            (<= (+ (- |c'0|) 1) 0))) (<= (- K) 0)
               (<= (+ (- |d'0|) 1) 0) (<= (- |c'0|) 0) (<= (+ (- |c'0|) 6) 0)
               (= (+ |d'| (- |d'0|)) 0) (= (+ |c'| (- |c'0|)) 0)
               (= (+ |b'| (- b) -1) 0)
               (= (+ term_to_project_onto1_integralized (- (+ |b'| (- b)))) 0)
               (= (+ term_to_project_onto0_integralized (- (+ |c'| (- c)))) 0)
               (= (+ term_to_project_onto_integralized (- (+ |d'| (- d)))) 0)))
(check-sat)